Cu  O  C                                
   1.00000000000000     
     7.6579664402503100    0.0000000000000000    0.0000000000000000
     0.0000000000000000    7.6579664402503100    0.0000000000000000
     0.0000000000000000    0.0000000000000000   29.6099999999999994
   Cu   O    C 
    27     1     1
Selective dynamics
Direct
  0.0000000000000000  0.0000000000000000  0.4390408645727817   F   F   F
  0.3333333333333357  0.0000000000000000  0.4390408645727817   F   F   F
  0.6666666666666643  0.0000000000000000  0.4390408645727817   F   F   F
  0.0000000000000000  0.3333333333333357  0.4390408645727817   F   F   F
  0.3333333333333357  0.3333333333333357  0.4390408645727817   F   F   F
  0.6666666666666643  0.3333333333333357  0.4390408645727817   F   F   F
  0.0000000000000000  0.6666666666666643  0.4390408645727817   F   F   F
  0.3333333333333357  0.6666666666666643  0.4390408645727817   F   F   F
  0.6666666666666643  0.6666666666666643  0.4390408645727817   F   F   F
  0.1666666666666643  0.1666666666666643  0.5000000000000000   F   F   F
  0.5000000000000000  0.1666666666666643  0.5000000000000000   F   F   F
  0.8333333333333357  0.1666666666666643  0.5000000000000000   F   F   F
  0.1666666666666643  0.5000000000000000  0.5000000000000000   F   F   F
  0.5000000000000000  0.5000000000000000  0.5000000000000000   F   F   F
  0.8333333333333357  0.5000000000000000  0.5000000000000000   F   F   F
  0.1666666666666643  0.8333333333333357  0.5000000000000000   F   F   F
  0.5000000000000000  0.8333333333333357  0.5000000000000000   F   F   F
  0.8333333333333357  0.8333333333333357  0.5000000000000000   F   F   F
  0.0236680405795795  0.9706295699890398  0.5649866566785037   T   T   T
  0.3616111695285751  0.0199480299936817  0.5632612573992074   T   T   T
  0.6852175598826961  0.9900635575911655  0.5642643516442164   T   T   T
  0.0017619662945413  0.3080155040043650  0.5644252947668501   T   T   T
  0.3290509189182198  0.3647313175393886  0.5724798258910035   T   T   T
  0.6546443823857596  0.3132554783865510  0.5653722067728417   T   T   T
  0.9794818855657420  0.6373127985491586  0.5644611766930788   T   T   T
  0.3011833223368245  0.6871602782620930  0.5589612041137475   T   T   T
  0.6536568803022670  0.6453686292999605  0.5625212259905553   T   T   T
  0.3514127399094079  0.3167596825991095  0.6837417985911773   T   T   T
  0.3341894492444465  0.3484487755603144  0.6438802749211485   T   T   T
 
  0.00000000E+00  0.00000000E+00  0.00000000E+00
  0.00000000E+00  0.00000000E+00  0.00000000E+00
  0.00000000E+00  0.00000000E+00  0.00000000E+00
  0.00000000E+00  0.00000000E+00  0.00000000E+00
  0.00000000E+00  0.00000000E+00  0.00000000E+00
  0.00000000E+00  0.00000000E+00  0.00000000E+00
  0.00000000E+00  0.00000000E+00  0.00000000E+00
  0.00000000E+00  0.00000000E+00  0.00000000E+00
  0.00000000E+00  0.00000000E+00  0.00000000E+00
  0.00000000E+00  0.00000000E+00  0.00000000E+00
  0.00000000E+00  0.00000000E+00  0.00000000E+00
  0.00000000E+00  0.00000000E+00  0.00000000E+00
  0.00000000E+00  0.00000000E+00  0.00000000E+00
  0.00000000E+00  0.00000000E+00  0.00000000E+00
  0.00000000E+00  0.00000000E+00  0.00000000E+00
  0.00000000E+00  0.00000000E+00  0.00000000E+00
  0.00000000E+00  0.00000000E+00  0.00000000E+00
  0.00000000E+00  0.00000000E+00  0.00000000E+00
  0.19628592E-02 -0.52546224E-04 -0.33393744E-02
 -0.20954215E-02  0.87838441E-03  0.79053728E-03
  0.25771732E-02 -0.28880813E-03 -0.32987188E-02
  0.10496360E-03 -0.51746851E-03 -0.21323618E-02
 -0.80882974E-03 -0.52284749E-02 -0.54515126E-03
  0.82572718E-03  0.23098141E-02  0.33425378E-03
  0.56488288E-03 -0.43374493E-02  0.16812089E-03
 -0.37034872E-02 -0.21371807E-03 -0.41874911E-03
  0.25978189E-02 -0.24305243E-02  0.27857138E-02
 -0.23882314E-02 -0.22434201E-02  0.83572735E-03
  0.75636831E-03  0.26409868E-02 -0.42585454E-02
 
           1
  0.500000000000000     
  0.42934176E+00 -0.12419424E-01 -0.32109923E-17  0.00000000E+00
  0.00000000E+00  0.00000000E+00  0.43904086E+00
  0.33333333E+00  0.00000000E+00  0.43904086E+00
  0.66666667E+00  0.00000000E+00  0.43904086E+00
  0.00000000E+00  0.33333333E+00  0.43904086E+00
  0.33333333E+00  0.33333333E+00  0.43904086E+00
  0.66666667E+00  0.33333333E+00  0.43904086E+00
  0.00000000E+00  0.66666667E+00  0.43904086E+00
  0.33333333E+00  0.66666667E+00  0.43904086E+00
  0.66666667E+00  0.66666667E+00  0.43904086E+00
  0.16666667E+00  0.16666667E+00  0.50000000E+00
  0.50000000E+00  0.16666667E+00  0.50000000E+00
  0.83333333E+00  0.16666667E+00  0.50000000E+00
  0.16666667E+00  0.50000000E+00  0.50000000E+00
  0.50000000E+00  0.50000000E+00  0.50000000E+00
  0.83333333E+00  0.50000000E+00  0.50000000E+00
  0.16666667E+00  0.83333333E+00  0.50000000E+00
  0.50000000E+00  0.83333333E+00  0.50000000E+00
  0.83333333E+00  0.83333333E+00  0.50000000E+00
  0.23796199E-01  0.97062614E+00  0.56493027E+00
  0.36147436E+00  0.20005381E-01  0.56327461E+00
  0.68538583E+00  0.99004470E+00  0.56420865E+00
  0.17688195E-02  0.30798172E+00  0.56438929E+00
  0.32899811E+00  0.36438994E+00  0.57247062E+00
  0.65469830E+00  0.31340629E+00  0.56537785E+00
  0.97951877E+00  0.63702960E+00  0.56446402E+00
  0.30094152E+00  0.68714632E+00  0.55895413E+00
  0.65382650E+00  0.64520994E+00  0.56256827E+00
  0.35125681E+00  0.31661321E+00  0.68375591E+00
  0.33423883E+00  0.34862121E+00  0.64380836E+00
  0.00000000E+00  0.00000000E+00  0.00000000E+00
  0.00000000E+00  0.00000000E+00  0.00000000E+00
  0.00000000E+00  0.00000000E+00  0.00000000E+00
  0.00000000E+00  0.00000000E+00  0.00000000E+00
  0.00000000E+00  0.00000000E+00  0.00000000E+00
  0.00000000E+00  0.00000000E+00  0.00000000E+00
  0.00000000E+00  0.00000000E+00  0.00000000E+00
  0.00000000E+00  0.00000000E+00  0.00000000E+00
  0.00000000E+00  0.00000000E+00  0.00000000E+00
  0.00000000E+00  0.00000000E+00  0.00000000E+00
  0.00000000E+00  0.00000000E+00  0.00000000E+00
  0.00000000E+00  0.00000000E+00  0.00000000E+00
  0.00000000E+00  0.00000000E+00  0.00000000E+00
  0.00000000E+00  0.00000000E+00  0.00000000E+00
  0.00000000E+00  0.00000000E+00  0.00000000E+00
  0.00000000E+00  0.00000000E+00  0.00000000E+00
  0.00000000E+00  0.00000000E+00  0.00000000E+00
  0.00000000E+00  0.00000000E+00  0.00000000E+00
  0.12650243E-03 -0.38714087E-05 -0.55500619E-04
 -0.13381434E-03  0.56682166E-04  0.13125123E-04
  0.16557860E-03 -0.18240584E-04 -0.54802082E-04
  0.73284665E-05 -0.33293937E-04 -0.35371694E-04
 -0.52143780E-04 -0.33603875E-03 -0.94913438E-05
  0.52508179E-04  0.14821771E-03  0.57342071E-05
  0.35983946E-04 -0.27981311E-03  0.28160470E-05
 -0.24007933E-03 -0.13708899E-04 -0.74037376E-05
  0.16765904E-03 -0.15726453E-03  0.46361291E-04
 -0.14846076E-03 -0.15407208E-03  0.25482922E-04
  0.41736076E-04  0.18268893E-03 -0.82346288E-04
  0.00000000E+00  0.00000000E+00  0.00000000E+00
  0.00000000E+00  0.00000000E+00  0.00000000E+00
  0.00000000E+00  0.00000000E+00  0.00000000E+00
  0.00000000E+00  0.00000000E+00  0.00000000E+00
  0.00000000E+00  0.00000000E+00  0.00000000E+00
  0.00000000E+00  0.00000000E+00  0.00000000E+00
  0.00000000E+00  0.00000000E+00  0.00000000E+00
  0.00000000E+00  0.00000000E+00  0.00000000E+00
  0.00000000E+00  0.00000000E+00  0.00000000E+00
  0.00000000E+00  0.00000000E+00  0.00000000E+00
  0.00000000E+00  0.00000000E+00  0.00000000E+00
  0.00000000E+00  0.00000000E+00  0.00000000E+00
  0.00000000E+00  0.00000000E+00  0.00000000E+00
  0.00000000E+00  0.00000000E+00  0.00000000E+00
  0.00000000E+00  0.00000000E+00  0.00000000E+00
  0.00000000E+00  0.00000000E+00  0.00000000E+00
  0.00000000E+00  0.00000000E+00  0.00000000E+00
  0.00000000E+00  0.00000000E+00  0.00000000E+00
  0.00000000E+00  0.00000000E+00  0.00000000E+00
  0.00000000E+00  0.00000000E+00  0.00000000E+00
  0.00000000E+00  0.00000000E+00  0.00000000E+00
  0.00000000E+00  0.00000000E+00  0.00000000E+00
  0.00000000E+00  0.00000000E+00  0.00000000E+00
  0.00000000E+00  0.00000000E+00  0.00000000E+00
  0.00000000E+00  0.00000000E+00  0.00000000E+00
  0.00000000E+00  0.00000000E+00  0.00000000E+00
  0.00000000E+00  0.00000000E+00  0.00000000E+00
  0.00000000E+00  0.00000000E+00  0.00000000E+00
  0.00000000E+00  0.00000000E+00  0.00000000E+00
